\ Model Cl_40_Ins_2.lp
\ LP format - for model browsing. Use MPS format to capture full model detail.
Maximize
 
Subject To
 obj1: y[0] = 0
 obj2: y[1] = 0
 obj1_Exp: - y[0] + 98 x[0] + 94 x[1] + 92 x[2] + 90 x[3] + 89 x[4]
   + 88 x[5] + 86 x[6] + 79 x[7] + 78 x[8] + 77 x[9] + 65 x[10] + 63 x[11]
   + 62 x[12] + 61 x[13] + 60 x[14] + 59 x[15] + 53 x[16] + 51 x[17]
   + 49 x[18] + 48 x[19] + 46 x[20] + 44 x[21] + 43 x[22] + 41 x[23]
   + 33 x[24] + 33 x[25] + 32 x[26] + 31 x[27] + 26 x[28] + 24 x[29]
   + 23 x[30] + 23 x[31] + 23 x[32] + 23 x[33] + 21 x[34] + 17 x[35]
   + 15 x[36] + 13 x[37] + 7 x[38] + 2 x[39] = 0
 obj2_Exp: - y[1] + 90 x[0] + 88 x[1] + 78 x[2] + 98 x[3] + 64 x[4]
   + 26 x[5] + 55 x[6] + 69 x[7] + 15 x[8] + 31 x[9] + 32 x[10] + 45 x[11]
   + 23 x[12] + 48 x[13] + x[14] + 68 x[15] + 89 x[16] + 66 x[17]
   + 11 x[18] + 88 x[19] + 50 x[20] + 66 x[21] + 83 x[22] + 31 x[23]
   + 53 x[24] + 6 x[25] + 55 x[26] + 5 x[27] + 32 x[28] + 34 x[29]
   + 30 x[30] + 98 x[31] + 75 x[32] + 77 x[33] + 26 x[34] + 41 x[35]
   + 11 x[36] + 94 x[37] + 71 x[38] + 12 x[39] = 0
 Budget: 108 x[0] + 104 x[1] + 102 x[2] + 100 x[3] + 99 x[4] + 98 x[5]
   + 96 x[6] + 89 x[7] + 88 x[8] + 87 x[9] + 75 x[10] + 73 x[11] + 72 x[12]
   + 71 x[13] + 70 x[14] + 69 x[15] + 63 x[16] + 61 x[17] + 59 x[18]
   + 58 x[19] + 56 x[20] + 54 x[21] + 53 x[22] + 51 x[23] + 43 x[24]
   + 43 x[25] + 42 x[26] + 41 x[27] + 36 x[28] + 34 x[29] + 33 x[30]
   + 33 x[31] + 33 x[32] + 33 x[33] + 31 x[34] + 27 x[35] + 25 x[36]
   + 23 x[37] + 17 x[38] + 12 x[39] <= 919
Bounds
Binaries
 x[0] x[1] x[2] x[3] x[4] x[5] x[6] x[7] x[8] x[9] x[10] x[11] x[12] x[13]
 x[14] x[15] x[16] x[17] x[18] x[19] x[20] x[21] x[22] x[23] x[24] x[25]
 x[26] x[27] x[28] x[29] x[30] x[31] x[32] x[33] x[34] x[35] x[36] x[37]
 x[38] x[39]
Generals
 y[0] y[1]
End
